222197.0
2733
0 4 6 7 8 9 10 11 12 14 16 18 19 20 21 25 26 28 30 31 32 34 36 37 39 41 44 47 48 50 52 53 55 56 57 58 59 60 61 62 65 66 68 69 72 75 81 82 83 84 85 87 89 90 91 95 96 98 99 100 101 102 103 104 107 111 112 113 114 116 117 120 122 123 124 125 129 135 140 141 142 144 145 147 149 150 151 153 155 156 162 163 167 168 169 171 172 175 177 179 180 181 185 187 188 189 191 192 193 194 199 